\ Model birth-death-regulation-capture-efficiency
\ LP format - for model browsing. Use MPS format to capture full model detail.
Minimize
  k_reg
Subject To
 R0: k_deg_2 = 1
 B_lb_0,_0: p[0,0] + 0.6 p[0,1] + 0.36 p[0,2] + 0.216 p[0,3]
   + 0.1296 p[0,4] + 0.07776 p[0,5] + 0.046656 p[0,6] + 0.6 p[1,0]
   + 0.36 p[1,1] + 0.216 p[1,2] + 0.1296 p[1,3] + 0.07776 p[1,4]
   + 0.046656 p[1,5] + 0.0279936 p[1,6] + 0.36 p[2,0] + 0.216 p[2,1]
   + 0.1296 p[2,2] + 0.07776 p[2,3] + 0.046656 p[2,4] + 0.0279936 p[2,5]
   + 0.0167961599999987 p[2,6] + 0.216 p[3,0] + 0.1296 p[3,1]
   + 0.07776 p[3,2] + 0.046656 p[3,3] + 0.0279936 p[3,4]
   + 0.0167961599999987 p[3,5] + 0.0100776960000011 p[3,6] + 0.1296 p[4,0]
   + 0.07776 p[4,1] + 0.046656 p[4,2] + 0.0279936 p[4,3]
   + 0.0167961599999987 p[4,4] + 0.0100776960000011 p[4,5]
   + 0.00604661759999937 p[4,6] + 0.07776 p[5,0] + 0.046656 p[5,1]
   + 0.0279936 p[5,2] + 0.0167961599999987 p[5,3]
   + 0.0100776960000011 p[5,4] + 0.00604661759999937 p[5,5]
   + 0.00362797056000017 p[5,6] + 0.046656 p[6,0] + 0.0279936 p[6,1]
   + 0.0167961599999987 p[6,2] + 0.0100776960000011 p[6,3]
   + 0.00604661759999937 p[6,4] + 0.00362797056000017 p[6,5]
   + 0.00217678233600018 p[6,6] >= 0.5380806122448979
 B_ub_0,_0: p[0,0] + 0.6 p[0,1] + 0.36 p[0,2] + 0.216 p[0,3]
   + 0.1296 p[0,4] + 0.07776 p[0,5] + 0.046656 p[0,6] + 0.6 p[1,0]
   + 0.36 p[1,1] + 0.216 p[1,2] + 0.1296 p[1,3] + 0.07776 p[1,4]
   + 0.046656 p[1,5] + 0.0279936 p[1,6] + 0.36 p[2,0] + 0.216 p[2,1]
   + 0.1296 p[2,2] + 0.07776 p[2,3] + 0.046656 p[2,4] + 0.0279936 p[2,5]
   + 0.0167961599999987 p[2,6] + 0.216 p[3,0] + 0.1296 p[3,1]
   + 0.07776 p[3,2] + 0.046656 p[3,3] + 0.0279936 p[3,4]
   + 0.0167961599999987 p[3,5] + 0.0100776960000011 p[3,6] + 0.1296 p[4,0]
   + 0.07776 p[4,1] + 0.046656 p[4,2] + 0.0279936 p[4,3]
   + 0.0167961599999987 p[4,4] + 0.0100776960000011 p[4,5]
   + 0.00604661759999937 p[4,6] + 0.07776 p[5,0] + 0.046656 p[5,1]
   + 0.0279936 p[5,2] + 0.0167961599999987 p[5,3]
   + 0.0100776960000011 p[5,4] + 0.00604661759999937 p[5,5]
   + 0.00362797056000017 p[5,6] + 0.046656 p[6,0] + 0.0279936 p[6,1]
   + 0.0167961599999987 p[6,2] + 0.0100776960000011 p[6,3]
   + 0.00604661759999937 p[6,4] + 0.00362797056000017 p[6,5]
   + 0.00217678233600018 p[6,6] <= 0.5904
 B_lb_0,_1: 0.4 p[0,1] + 0.48 p[0,2] + 0.432 p[0,3] + 0.3456 p[0,4]
   + 0.2592 p[0,5] + 0.186624 p[0,6] + 0.24 p[1,1] + 0.288 p[1,2]
   + 0.2592 p[1,3] + 0.20736 p[1,4] + 0.15552 p[1,5]
   + 0.1119743999999871 p[1,6] + 0.144 p[2,1] + 0.1728 p[2,2]
   + 0.15552 p[2,3] + 0.124416 p[2,4] + 0.093312 p[2,5]
   + 0.0671846399999915 p[2,6] + 0.0864 p[3,1] + 0.10368 p[3,2]
   + 0.093312 p[3,3] + 0.0746496 p[3,4] + 0.0559872 p[3,5]
   + 0.0403107839999977 p[3,6] + 0.05184 p[4,1] + 0.062208 p[4,2]
   + 0.0559872 p[4,3] + 0.0447897599999943 p[4,4]
   + 0.033592319999998 p[4,5] + 0.0241864704000019 p[4,6] + 0.031104 p[5,1]
   + 0.0373248 p[5,2] + 0.0335923199999958 p[5,3]
   + 0.0268738559999984 p[5,4] + 0.0201553920000016 p[5,5]
   + 0.014511882240001 p[5,6] + 0.0186624 p[6,1]
   + 0.0223948799999972 p[6,2] + 0.0201553919999988 p[6,3]
   + 0.0161243136000013 p[6,4] + 0.0120932352000008 p[6,5]
   + 0.00870712934400041 p[6,6] >= 0.127480612244898
 B_ub_0,_1: 0.4 p[0,1] + 0.48 p[0,2] + 0.432 p[0,3] + 0.3456 p[0,4]
   + 0.2592 p[0,5] + 0.186624 p[0,6] + 0.24 p[1,1] + 0.288 p[1,2]
   + 0.2592 p[1,3] + 0.20736 p[1,4] + 0.15552 p[1,5]
   + 0.1119743999999871 p[1,6] + 0.144 p[2,1] + 0.1728 p[2,2]
   + 0.15552 p[2,3] + 0.124416 p[2,4] + 0.093312 p[2,5]
   + 0.0671846399999915 p[2,6] + 0.0864 p[3,1] + 0.10368 p[3,2]
   + 0.093312 p[3,3] + 0.0746496 p[3,4] + 0.0559872 p[3,5]
   + 0.0403107839999977 p[3,6] + 0.05184 p[4,1] + 0.062208 p[4,2]
   + 0.0559872 p[4,3] + 0.0447897599999943 p[4,4]
   + 0.033592319999998 p[4,5] + 0.0241864704000019 p[4,6] + 0.031104 p[5,1]
   + 0.0373248 p[5,2] + 0.0335923199999958 p[5,3]
   + 0.0268738559999984 p[5,4] + 0.0201553920000016 p[5,5]
   + 0.014511882240001 p[5,6] + 0.0186624 p[6,1]
   + 0.0223948799999972 p[6,2] + 0.0201553919999988 p[6,3]
   + 0.0161243136000013 p[6,4] + 0.0120932352000008 p[6,5]
   + 0.00870712934400041 p[6,6] <= 0.1728
 B_lb_0,_2: 0.16 p[0,2] + 0.288 p[0,3] + 0.3456 p[0,4] + 0.3456 p[0,5]
   + 0.31104 p[0,6] + 0.096 p[1,2] + 0.1728 p[1,3] + 0.20736 p[1,4]
   + 0.20736 p[1,5] + 0.186624 p[1,6] + 0.0576 p[2,2] + 0.10368 p[2,3]
   + 0.124416 p[2,4] + 0.124416 p[2,5] + 0.1119744000000011 p[2,6]
   + 0.03456 p[3,2] + 0.062208 p[3,3] + 0.0746496 p[3,4] + 0.0746496 p[3,5]
   + 0.0671846400000039 p[3,6] + 0.020736 p[4,2] + 0.0373248 p[4,3]
   + 0.0447897600000004 p[4,4] + 0.0447897600000026 p[4,5]
   + 0.0403107839999977 p[4,6] + 0.0124416 p[5,2]
   + 0.0223948800000002 p[5,3] + 0.0268738560000016 p[5,4]
   + 0.0268738559999985 p[5,5] + 0.0241864703999989 p[5,6]
   + 0.00746496 p[6,2] + 0.0134369280000008 p[6,3]
   + 0.0161243135999991 p[6,4] + 0.0161243135999993 p[6,5]
   + 0.0145118822399992 p[6,6] >= -0.00451938775510204
 B_ub_0,_2: 0.16 p[0,2] + 0.288 p[0,3] + 0.3456 p[0,4] + 0.3456 p[0,5]
   + 0.31104 p[0,6] + 0.096 p[1,2] + 0.1728 p[1,3] + 0.20736 p[1,4]
   + 0.20736 p[1,5] + 0.186624 p[1,6] + 0.0576 p[2,2] + 0.10368 p[2,3]
   + 0.124416 p[2,4] + 0.124416 p[2,5] + 0.1119744000000011 p[2,6]
   + 0.03456 p[3,2] + 0.062208 p[3,3] + 0.0746496 p[3,4] + 0.0746496 p[3,5]
   + 0.0671846400000039 p[3,6] + 0.020736 p[4,2] + 0.0373248 p[4,3]
   + 0.0447897600000004 p[4,4] + 0.0447897600000026 p[4,5]
   + 0.0403107839999977 p[4,6] + 0.0124416 p[5,2]
   + 0.0223948800000002 p[5,3] + 0.0268738560000016 p[5,4]
   + 0.0268738559999985 p[5,5] + 0.0241864703999989 p[5,6]
   + 0.00746496 p[6,2] + 0.0134369280000008 p[6,3]
   + 0.0161243135999991 p[6,4] + 0.0161243135999993 p[6,5]
   + 0.0145118822399992 p[6,6] <= 0.0288
 B_lb_1,_0: 0.4 p[1,0] + 0.24 p[1,1] + 0.144 p[1,2] + 0.0864 p[1,3]
   + 0.05184 p[1,4] + 0.031104 p[1,5] + 0.0186624 p[1,6] + 0.48 p[2,0]
   + 0.288 p[2,1] + 0.1728 p[2,2] + 0.10368 p[2,3] + 0.062208 p[2,4]
   + 0.0373248 p[2,5] + 0.0223948799999972 p[2,6] + 0.432 p[3,0]
   + 0.2592 p[3,1] + 0.15552 p[3,2] + 0.093312 p[3,3] + 0.0559872 p[3,4]
   + 0.0335923199999958 p[3,5] + 0.0201553919999988 p[3,6] + 0.3456 p[4,0]
   + 0.20736 p[4,1] + 0.124416 p[4,2] + 0.0746496 p[4,3]
   + 0.0447897599999943 p[4,4] + 0.0268738559999984 p[4,5]
   + 0.0161243136000013 p[4,6] + 0.2592 p[5,0] + 0.15552 p[5,1]
   + 0.093312 p[5,2] + 0.0559872 p[5,3] + 0.033592319999998 p[5,4]
   + 0.0201553920000016 p[5,5] + 0.0120932352000008 p[5,6]
   + 0.186624 p[6,0] + 0.1119743999999871 p[6,1]
   + 0.0671846399999915 p[6,2] + 0.0403107839999977 p[6,3]
   + 0.0241864704000019 p[6,4] + 0.014511882240001 p[6,5]
   + 0.00870712934400041 p[6,6] >= 0.124280612244898
 B_ub_1,_0: 0.4 p[1,0] + 0.24 p[1,1] + 0.144 p[1,2] + 0.0864 p[1,3]
   + 0.05184 p[1,4] + 0.031104 p[1,5] + 0.0186624 p[1,6] + 0.48 p[2,0]
   + 0.288 p[2,1] + 0.1728 p[2,2] + 0.10368 p[2,3] + 0.062208 p[2,4]
   + 0.0373248 p[2,5] + 0.0223948799999972 p[2,6] + 0.432 p[3,0]
   + 0.2592 p[3,1] + 0.15552 p[3,2] + 0.093312 p[3,3] + 0.0559872 p[3,4]
   + 0.0335923199999958 p[3,5] + 0.0201553919999988 p[3,6] + 0.3456 p[4,0]
   + 0.20736 p[4,1] + 0.124416 p[4,2] + 0.0746496 p[4,3]
   + 0.0447897599999943 p[4,4] + 0.0268738559999984 p[4,5]
   + 0.0161243136000013 p[4,6] + 0.2592 p[5,0] + 0.15552 p[5,1]
   + 0.093312 p[5,2] + 0.0559872 p[5,3] + 0.033592319999998 p[5,4]
   + 0.0201553920000016 p[5,5] + 0.0120932352000008 p[5,6]
   + 0.186624 p[6,0] + 0.1119743999999871 p[6,1]
   + 0.0671846399999915 p[6,2] + 0.0403107839999977 p[6,3]
   + 0.0241864704000019 p[6,4] + 0.014511882240001 p[6,5]
   + 0.00870712934400041 p[6,6] <= 0.1696
 B_lb_1,_1: 0.16 p[1,1] + 0.192 p[1,2] + 0.1728 p[1,3] + 0.13824 p[1,4]
   + 0.10368 p[1,5] + 0.0746496 p[1,6] + 0.192 p[2,1] + 0.2304 p[2,2]
   + 0.20736 p[2,3] + 0.165888 p[2,4] + 0.124416 p[2,5]
   + 0.0895795200000009 p[2,6] + 0.1728 p[3,1] + 0.20736 p[3,2]
   + 0.186624 p[3,3] + 0.1492992000000122 p[3,4]
   + 0.1119744000000011 p[3,5] + 0.0806215680000047 p[3,6] + 0.13824 p[4,1]
   + 0.165888 p[4,2] + 0.1492992000000122 p[4,3]
   + 0.1194393600000012 p[4,4] + 0.0895795200000052 p[4,5]
   + 0.0644972543999963 p[4,6] + 0.10368 p[5,1] + 0.124416 p[5,2]
   + 0.1119744000000011 p[5,3] + 0.0895795200000052 p[5,4]
   + 0.0671846399999961 p[5,5] + 0.0483729407999971 p[5,6]
   + 0.0746496 p[6,1] + 0.0895795200000009 p[6,2]
   + 0.0806215680000047 p[6,3] + 0.0644972543999963 p[6,4]
   + 0.0483729407999971 p[6,5] + 0.034828517375998 p[6,6]
   >= 0.00648061224489796
 B_ub_1,_1: 0.16 p[1,1] + 0.192 p[1,2] + 0.1728 p[1,3] + 0.13824 p[1,4]
   + 0.10368 p[1,5] + 0.0746496 p[1,6] + 0.192 p[2,1] + 0.2304 p[2,2]
   + 0.20736 p[2,3] + 0.165888 p[2,4] + 0.124416 p[2,5]
   + 0.0895795200000009 p[2,6] + 0.1728 p[3,1] + 0.20736 p[3,2]
   + 0.186624 p[3,3] + 0.1492992000000122 p[3,4]
   + 0.1119744000000011 p[3,5] + 0.0806215680000047 p[3,6] + 0.13824 p[4,1]
   + 0.165888 p[4,2] + 0.1492992000000122 p[4,3]
   + 0.1194393600000012 p[4,4] + 0.0895795200000052 p[4,5]
   + 0.0644972543999963 p[4,6] + 0.10368 p[5,1] + 0.124416 p[5,2]
   + 0.1119744000000011 p[5,3] + 0.0895795200000052 p[5,4]
   + 0.0671846399999961 p[5,5] + 0.0483729407999971 p[5,6]
   + 0.0746496 p[6,1] + 0.0895795200000009 p[6,2]
   + 0.0806215680000047 p[6,3] + 0.0644972543999963 p[6,4]
   + 0.0483729407999971 p[6,5] + 0.034828517375998 p[6,6] <= 0.0418
 B_lb_1,_2: 0.064 p[1,2] + 0.1152 p[1,3] + 0.13824 p[1,4] + 0.13824 p[1,5]
   + 0.124416 p[1,6] + 0.0768 p[2,2] + 0.13824 p[2,3] + 0.165888 p[2,4]
   + 0.165888 p[2,5] + 0.1492991999999933 p[2,6] + 0.06912 p[3,2]
   + 0.124416 p[3,3] + 0.1492991999999917 p[3,4]
   + 0.1492991999999933 p[3,5] + 0.1343692800000122 p[3,6]
   + 0.055296 p[4,2] + 0.0995328 p[4,3] + 0.1194393599999947 p[4,4]
   + 0.1194393600000109 p[4,5] + 0.1074954239999948 p[4,6]
   + 0.041472 p[5,2] + 0.0746496 p[5,3] + 0.0895795200000082 p[5,4]
   + 0.0895795199999957 p[5,5] + 0.0806215679999957 p[5,6]
   + 0.0298598399999987 p[6,2] + 0.0537477120000049 p[6,3]
   + 0.0644972543999969 p[6,4] + 0.0644972543999965 p[6,5]
   + 0.0580475289599975 p[6,6] >= -0.021319387755102
 B_ub_1,_2: 0.064 p[1,2] + 0.1152 p[1,3] + 0.13824 p[1,4] + 0.13824 p[1,5]
   + 0.124416 p[1,6] + 0.0768 p[2,2] + 0.13824 p[2,3] + 0.165888 p[2,4]
   + 0.165888 p[2,5] + 0.1492991999999933 p[2,6] + 0.06912 p[3,2]
   + 0.124416 p[3,3] + 0.1492991999999917 p[3,4]
   + 0.1492991999999933 p[3,5] + 0.1343692800000122 p[3,6]
   + 0.055296 p[4,2] + 0.0995328 p[4,3] + 0.1194393599999947 p[4,4]
   + 0.1194393600000109 p[4,5] + 0.1074954239999948 p[4,6]
   + 0.041472 p[5,2] + 0.0746496 p[5,3] + 0.0895795200000082 p[5,4]
   + 0.0895795199999957 p[5,5] + 0.0806215679999957 p[5,6]
   + 0.0298598399999987 p[6,2] + 0.0537477120000049 p[6,3]
   + 0.0644972543999969 p[6,4] + 0.0644972543999965 p[6,5]
   + 0.0580475289599975 p[6,6] <= 0.0074
 B_lb_2,_0: 0.16 p[2,0] + 0.096 p[2,1] + 0.0576 p[2,2] + 0.03456 p[2,3]
   + 0.020736 p[2,4] + 0.0124416 p[2,5] + 0.00746496 p[2,6] + 0.288 p[3,0]
   + 0.1728 p[3,1] + 0.10368 p[3,2] + 0.062208 p[3,3] + 0.0373248 p[3,4]
   + 0.0223948800000002 p[3,5] + 0.0134369280000008 p[3,6] + 0.3456 p[4,0]
   + 0.20736 p[4,1] + 0.124416 p[4,2] + 0.0746496 p[4,3]
   + 0.0447897600000004 p[4,4] + 0.0268738560000016 p[4,5]
   + 0.0161243135999991 p[4,6] + 0.3456 p[5,0] + 0.20736 p[5,1]
   + 0.124416 p[5,2] + 0.0746496 p[5,3] + 0.0447897600000026 p[5,4]
   + 0.0268738559999985 p[5,5] + 0.0161243135999993 p[5,6] + 0.31104 p[6,0]
   + 0.186624 p[6,1] + 0.1119744000000011 p[6,2]
   + 0.0671846400000039 p[6,3] + 0.0403107839999977 p[6,4]
   + 0.0241864703999989 p[6,5] + 0.0145118822399992 p[6,6]
   >= -0.00231938775510204
 B_ub_2,_0: 0.16 p[2,0] + 0.096 p[2,1] + 0.0576 p[2,2] + 0.03456 p[2,3]
   + 0.020736 p[2,4] + 0.0124416 p[2,5] + 0.00746496 p[2,6] + 0.288 p[3,0]
   + 0.1728 p[3,1] + 0.10368 p[3,2] + 0.062208 p[3,3] + 0.0373248 p[3,4]
   + 0.0223948800000002 p[3,5] + 0.0134369280000008 p[3,6] + 0.3456 p[4,0]
   + 0.20736 p[4,1] + 0.124416 p[4,2] + 0.0746496 p[4,3]
   + 0.0447897600000004 p[4,4] + 0.0268738560000016 p[4,5]
   + 0.0161243135999991 p[4,6] + 0.3456 p[5,0] + 0.20736 p[5,1]
   + 0.124416 p[5,2] + 0.0746496 p[5,3] + 0.0447897600000026 p[5,4]
   + 0.0268738559999985 p[5,5] + 0.0161243135999993 p[5,6] + 0.31104 p[6,0]
   + 0.186624 p[6,1] + 0.1119744000000011 p[6,2]
   + 0.0671846400000039 p[6,3] + 0.0403107839999977 p[6,4]
   + 0.0241864703999989 p[6,5] + 0.0145118822399992 p[6,6] <= 0.0314
 B_lb_2,_1: 0.064 p[2,1] + 0.0768 p[2,2] + 0.06912 p[2,3] + 0.055296 p[2,4]
   + 0.041472 p[2,5] + 0.0298598399999987 p[2,6] + 0.1152 p[3,1]
   + 0.13824 p[3,2] + 0.124416 p[3,3] + 0.0995328 p[3,4] + 0.0746496 p[3,5]
   + 0.0537477120000049 p[3,6] + 0.13824 p[4,1] + 0.165888 p[4,2]
   + 0.1492991999999917 p[4,3] + 0.1194393599999947 p[4,4]
   + 0.0895795200000082 p[4,5] + 0.0644972543999969 p[4,6] + 0.13824 p[5,1]
   + 0.165888 p[5,2] + 0.1492991999999933 p[5,3]
   + 0.1194393600000109 p[5,4] + 0.0895795199999957 p[5,5]
   + 0.0644972543999965 p[5,6] + 0.124416 p[6,1]
   + 0.1492991999999933 p[6,2] + 0.1343692800000122 p[6,3]
   + 0.1074954239999948 p[6,4] + 0.0806215679999957 p[6,5]
   + 0.0580475289599975 p[6,6] >= -0.022719387755102
 B_ub_2,_1: 0.064 p[2,1] + 0.0768 p[2,2] + 0.06912 p[2,3] + 0.055296 p[2,4]
   + 0.041472 p[2,5] + 0.0298598399999987 p[2,6] + 0.1152 p[3,1]
   + 0.13824 p[3,2] + 0.124416 p[3,3] + 0.0995328 p[3,4] + 0.0746496 p[3,5]
   + 0.0537477120000049 p[3,6] + 0.13824 p[4,1] + 0.165888 p[4,2]
   + 0.1492991999999917 p[4,3] + 0.1194393599999947 p[4,4]
   + 0.0895795200000082 p[4,5] + 0.0644972543999969 p[4,6] + 0.13824 p[5,1]
   + 0.165888 p[5,2] + 0.1492991999999933 p[5,3]
   + 0.1194393600000109 p[5,4] + 0.0895795199999957 p[5,5]
   + 0.0644972543999965 p[5,6] + 0.124416 p[6,1]
   + 0.1492991999999933 p[6,2] + 0.1343692800000122 p[6,3]
   + 0.1074954239999948 p[6,4] + 0.0806215679999957 p[6,5]
   + 0.0580475289599975 p[6,6] <= 0.0054
 B_lb_2,_2: 0.0256 p[2,2] + 0.04608 p[2,3] + 0.055296 p[2,4]
   + 0.055296 p[2,5] + 0.0497664 p[2,6] + 0.04608 p[3,2] + 0.082944 p[3,3]
   + 0.0995328 p[3,4] + 0.0995328 p[3,5] + 0.0895795200000054 p[3,6]
   + 0.055296 p[4,2] + 0.0995328 p[4,3] + 0.1194393599999972 p[4,4]
   + 0.1194393600000073 p[4,5] + 0.1074954239999914 p[4,6]
   + 0.055296 p[5,2] + 0.0995328 p[5,3] + 0.1194393600000073 p[5,4]
   + 0.1194393599999905 p[5,5] + 0.1074954239999937 p[5,6]
   + 0.0497664 p[6,2] + 0.0895795200000054 p[6,3]
   + 0.1074954239999914 p[6,4] + 0.1074954239999937 p[6,5]
   + 0.0967458816000046 p[6,6] >= -0.024719387755102
 B_ub_2,_2: 0.0256 p[2,2] + 0.04608 p[2,3] + 0.055296 p[2,4]
   + 0.055296 p[2,5] + 0.0497664 p[2,6] + 0.04608 p[3,2] + 0.082944 p[3,3]
   + 0.0995328 p[3,4] + 0.0995328 p[3,5] + 0.0895795200000054 p[3,6]
   + 0.055296 p[4,2] + 0.0995328 p[4,3] + 0.1194393599999972 p[4,4]
   + 0.1194393600000073 p[4,5] + 0.1074954239999914 p[4,6]
   + 0.055296 p[5,2] + 0.0995328 p[5,3] + 0.1194393600000073 p[5,4]
   + 0.1194393599999905 p[5,5] + 0.1074954239999937 p[5,6]
   + 0.0497664 p[6,2] + 0.0895795200000054 p[6,3]
   + 0.1074954239999914 p[6,4] + 0.1074954239999937 p[6,5]
   + 0.0967458816000046 p[6,6] <= 1
 B_marginal_lb_0: p1[0] + 0.6 p1[1] + 0.36 p1[2] + 0.216 p1[3]
   + 0.1296 p1[4] + 0.07776 p1[5] + 0.046656 p1[6] >= 0.6507142857142857
 B_marginal_ub_0: p1[0] + 0.6 p1[1] + 0.36 p1[2] + 0.216 p1[3]
   + 0.1296 p1[4] + 0.07776 p1[5] + 0.046656 p1[6] <= 0.7772
 B_marginal_lb_1: 0.4 p1[1] + 0.48 p1[2] + 0.432 p1[3] + 0.3456 p1[4]
   + 0.2592 p1[5] + 0.186624 p1[6] >= 0.0877142857142857
 B_marginal_ub_1: 0.4 p1[1] + 0.48 p1[2] + 0.432 p1[3] + 0.3456 p1[4]
   + 0.2592 p1[5] + 0.186624 p1[6] <= 0.2122
 B_marginal_lb_2: 0.16 p1[2] + 0.288 p1[3] + 0.3456 p1[4] + 0.3456 p1[5]
   + 0.31104 p1[6] >= -0.0764857142857143
 B_marginal_ub_2: 0.16 p1[2] + 0.288 p1[3] + 0.3456 p1[4] + 0.3456 p1[5]
   + 0.31104 p1[6] <= 0.0354
 B_marginal_lb_0: p2[0] + 0.6 p2[1] + 0.36 p2[2] + 0.216 p2[3]
   + 0.1296 p2[4] + 0.07776 p2[5] + 0.046656 p2[6] >= 0.6528714285714284
 B_marginal_ub_0: p2[0] + 0.6 p2[1] + 0.36 p2[2] + 0.216 p2[3]
   + 0.1296 p2[4] + 0.07776 p2[5] + 0.046656 p2[6] <= 0.777205
 B_marginal_lb_1: 0.4 p2[1] + 0.48 p2[2] + 0.432 p2[3] + 0.3456 p2[4]
   + 0.2592 p2[5] + 0.186624 p2[6] >= 0.0904714285714286
 B_marginal_ub_1: 0.4 p2[1] + 0.48 p2[2] + 0.432 p2[3] + 0.3456 p2[4]
   + 0.2592 p2[5] + 0.186624 p2[6] <= 0.2142
 B_marginal_lb_2: 0.16 p2[2] + 0.288 p2[3] + 0.3456 p2[4] + 0.3456 p2[5]
   + 0.31104 p2[6] >= -0.0757285714285714
 B_marginal_ub_2: 0.16 p2[2] + 0.288 p2[3] + 0.3456 p2[4] + 0.3456 p2[5]
   + 0.31104 p2[6] <= 0.0346
 frechet_lb_0,_0: - p[0,0] + p1[0] + p2[0] <= 1
 frechet_ub_x1_0: p[0,0] - p1[0] <= 0
 frechet_ub_x2_0: p[0,0] - p2[0] <= 0
 frechet_lb_0,_1: - p[0,1] + p1[0] + p2[1] <= 1
 frechet_ub_x1_0: p[0,1] - p1[0] <= 0
 frechet_ub_x2_1: p[0,1] - p2[1] <= 0
 frechet_lb_0,_2: - p[0,2] + p1[0] + p2[2] <= 1
 frechet_ub_x1_0: p[0,2] - p1[0] <= 0
 frechet_ub_x2_2: p[0,2] - p2[2] <= 0
 frechet_lb_0,_3: - p[0,3] + p1[0] + p2[3] <= 1
 frechet_ub_x1_0: p[0,3] - p1[0] <= 0
 frechet_ub_x2_3: p[0,3] - p2[3] <= 0
 frechet_lb_0,_4: - p[0,4] + p1[0] + p2[4] <= 1
 frechet_ub_x1_0: p[0,4] - p1[0] <= 0
 frechet_ub_x2_4: p[0,4] - p2[4] <= 0
 frechet_lb_0,_5: - p[0,5] + p1[0] + p2[5] <= 1
 frechet_ub_x1_0: p[0,5] - p1[0] <= 0
 frechet_ub_x2_5: p[0,5] - p2[5] <= 0
 frechet_lb_0,_6: - p[0,6] + p1[0] + p2[6] <= 1
 frechet_ub_x1_0: p[0,6] - p1[0] <= 0
 frechet_ub_x2_6: p[0,6] - p2[6] <= 0
 frechet_lb_1,_0: - p[1,0] + p1[1] + p2[0] <= 1
 frechet_ub_x1_1: p[1,0] - p1[1] <= 0
 frechet_ub_x2_0: p[1,0] - p2[0] <= 0
 frechet_lb_1,_1: - p[1,1] + p1[1] + p2[1] <= 1
 frechet_ub_x1_1: p[1,1] - p1[1] <= 0
 frechet_ub_x2_1: p[1,1] - p2[1] <= 0
 frechet_lb_1,_2: - p[1,2] + p1[1] + p2[2] <= 1
 frechet_ub_x1_1: p[1,2] - p1[1] <= 0
 frechet_ub_x2_2: p[1,2] - p2[2] <= 0
 frechet_lb_1,_3: - p[1,3] + p1[1] + p2[3] <= 1
 frechet_ub_x1_1: p[1,3] - p1[1] <= 0
 frechet_ub_x2_3: p[1,3] - p2[3] <= 0
 frechet_lb_1,_4: - p[1,4] + p1[1] + p2[4] <= 1
 frechet_ub_x1_1: p[1,4] - p1[1] <= 0
 frechet_ub_x2_4: p[1,4] - p2[4] <= 0
 frechet_lb_1,_5: - p[1,5] + p1[1] + p2[5] <= 1
 frechet_ub_x1_1: p[1,5] - p1[1] <= 0
 frechet_ub_x2_5: p[1,5] - p2[5] <= 0
 frechet_lb_1,_6: - p[1,6] + p1[1] + p2[6] <= 1
 frechet_ub_x1_1: p[1,6] - p1[1] <= 0
 frechet_ub_x2_6: p[1,6] - p2[6] <= 0
 frechet_lb_2,_0: - p[2,0] + p1[2] + p2[0] <= 1
 frechet_ub_x1_2: p[2,0] - p1[2] <= 0
 frechet_ub_x2_0: p[2,0] - p2[0] <= 0
 frechet_lb_2,_1: - p[2,1] + p1[2] + p2[1] <= 1
 frechet_ub_x1_2: p[2,1] - p1[2] <= 0
 frechet_ub_x2_1: p[2,1] - p2[1] <= 0
 frechet_lb_2,_2: - p[2,2] + p1[2] + p2[2] <= 1
 frechet_ub_x1_2: p[2,2] - p1[2] <= 0
 frechet_ub_x2_2: p[2,2] - p2[2] <= 0
 frechet_lb_2,_3: - p[2,3] + p1[2] + p2[3] <= 1
 frechet_ub_x1_2: p[2,3] - p1[2] <= 0
 frechet_ub_x2_3: p[2,3] - p2[3] <= 0
 frechet_lb_2,_4: - p[2,4] + p1[2] + p2[4] <= 1
 frechet_ub_x1_2: p[2,4] - p1[2] <= 0
 frechet_ub_x2_4: p[2,4] - p2[4] <= 0
 frechet_lb_2,_5: - p[2,5] + p1[2] + p2[5] <= 1
 frechet_ub_x1_2: p[2,5] - p1[2] <= 0
 frechet_ub_x2_5: p[2,5] - p2[5] <= 0
 frechet_lb_2,_6: - p[2,6] + p1[2] + p2[6] <= 1
 frechet_ub_x1_2: p[2,6] - p1[2] <= 0
 frechet_ub_x2_6: p[2,6] - p2[6] <= 0
 frechet_lb_3,_0: - p[3,0] + p1[3] + p2[0] <= 1
 frechet_ub_x1_3: p[3,0] - p1[3] <= 0
 frechet_ub_x2_0: p[3,0] - p2[0] <= 0
 frechet_lb_3,_1: - p[3,1] + p1[3] + p2[1] <= 1
 frechet_ub_x1_3: p[3,1] - p1[3] <= 0
 frechet_ub_x2_1: p[3,1] - p2[1] <= 0
 frechet_lb_3,_2: - p[3,2] + p1[3] + p2[2] <= 1
 frechet_ub_x1_3: p[3,2] - p1[3] <= 0
 frechet_ub_x2_2: p[3,2] - p2[2] <= 0
 frechet_lb_3,_3: - p[3,3] + p1[3] + p2[3] <= 1
 frechet_ub_x1_3: p[3,3] - p1[3] <= 0
 frechet_ub_x2_3: p[3,3] - p2[3] <= 0
 frechet_lb_3,_4: - p[3,4] + p1[3] + p2[4] <= 1
 frechet_ub_x1_3: p[3,4] - p1[3] <= 0
 frechet_ub_x2_4: p[3,4] - p2[4] <= 0
 frechet_lb_3,_5: - p[3,5] + p1[3] + p2[5] <= 1
 frechet_ub_x1_3: p[3,5] - p1[3] <= 0
 frechet_ub_x2_5: p[3,5] - p2[5] <= 0
 frechet_lb_3,_6: - p[3,6] + p1[3] + p2[6] <= 1
 frechet_ub_x1_3: p[3,6] - p1[3] <= 0
 frechet_ub_x2_6: p[3,6] - p2[6] <= 0
 frechet_lb_4,_0: - p[4,0] + p1[4] + p2[0] <= 1
 frechet_ub_x1_4: p[4,0] - p1[4] <= 0
 frechet_ub_x2_0: p[4,0] - p2[0] <= 0
 frechet_lb_4,_1: - p[4,1] + p1[4] + p2[1] <= 1
 frechet_ub_x1_4: p[4,1] - p1[4] <= 0
 frechet_ub_x2_1: p[4,1] - p2[1] <= 0
 frechet_lb_4,_2: - p[4,2] + p1[4] + p2[2] <= 1
 frechet_ub_x1_4: p[4,2] - p1[4] <= 0
 frechet_ub_x2_2: p[4,2] - p2[2] <= 0
 frechet_lb_4,_3: - p[4,3] + p1[4] + p2[3] <= 1
 frechet_ub_x1_4: p[4,3] - p1[4] <= 0
 frechet_ub_x2_3: p[4,3] - p2[3] <= 0
 frechet_lb_4,_4: - p[4,4] + p1[4] + p2[4] <= 1
 frechet_ub_x1_4: p[4,4] - p1[4] <= 0
 frechet_ub_x2_4: p[4,4] - p2[4] <= 0
 frechet_lb_4,_5: - p[4,5] + p1[4] + p2[5] <= 1
 frechet_ub_x1_4: p[4,5] - p1[4] <= 0
 frechet_ub_x2_5: p[4,5] - p2[5] <= 0
 frechet_lb_4,_6: - p[4,6] + p1[4] + p2[6] <= 1
 frechet_ub_x1_4: p[4,6] - p1[4] <= 0
 frechet_ub_x2_6: p[4,6] - p2[6] <= 0
 frechet_lb_5,_0: - p[5,0] + p1[5] + p2[0] <= 1
 frechet_ub_x1_5: p[5,0] - p1[5] <= 0
 frechet_ub_x2_0: p[5,0] - p2[0] <= 0
 frechet_lb_5,_1: - p[5,1] + p1[5] + p2[1] <= 1
 frechet_ub_x1_5: p[5,1] - p1[5] <= 0
 frechet_ub_x2_1: p[5,1] - p2[1] <= 0
 frechet_lb_5,_2: - p[5,2] + p1[5] + p2[2] <= 1
 frechet_ub_x1_5: p[5,2] - p1[5] <= 0
 frechet_ub_x2_2: p[5,2] - p2[2] <= 0
 frechet_lb_5,_3: - p[5,3] + p1[5] + p2[3] <= 1
 frechet_ub_x1_5: p[5,3] - p1[5] <= 0
 frechet_ub_x2_3: p[5,3] - p2[3] <= 0
 frechet_lb_5,_4: - p[5,4] + p1[5] + p2[4] <= 1
 frechet_ub_x1_5: p[5,4] - p1[5] <= 0
 frechet_ub_x2_4: p[5,4] - p2[4] <= 0
 frechet_lb_5,_5: - p[5,5] + p1[5] + p2[5] <= 1
 frechet_ub_x1_5: p[5,5] - p1[5] <= 0
 frechet_ub_x2_5: p[5,5] - p2[5] <= 0
 frechet_lb_5,_6: - p[5,6] + p1[5] + p2[6] <= 1
 frechet_ub_x1_5: p[5,6] - p1[5] <= 0
 frechet_ub_x2_6: p[5,6] - p2[6] <= 0
 frechet_lb_6,_0: - p[6,0] + p1[6] + p2[0] <= 1
 frechet_ub_x1_6: p[6,0] - p1[6] <= 0
 frechet_ub_x2_0: p[6,0] - p2[0] <= 0
 frechet_lb_6,_1: - p[6,1] + p1[6] + p2[1] <= 1
 frechet_ub_x1_6: p[6,1] - p1[6] <= 0
 frechet_ub_x2_1: p[6,1] - p2[1] <= 0
 frechet_lb_6,_2: - p[6,2] + p1[6] + p2[2] <= 1
 frechet_ub_x1_6: p[6,2] - p1[6] <= 0
 frechet_ub_x2_2: p[6,2] - p2[2] <= 0
 frechet_lb_6,_3: - p[6,3] + p1[6] + p2[3] <= 1
 frechet_ub_x1_6: p[6,3] - p1[6] <= 0
 frechet_ub_x2_3: p[6,3] - p2[3] <= 0
 frechet_lb_6,_4: - p[6,4] + p1[6] + p2[4] <= 1
 frechet_ub_x1_6: p[6,4] - p1[6] <= 0
 frechet_ub_x2_4: p[6,4] - p2[4] <= 0
 frechet_lb_6,_5: - p[6,5] + p1[6] + p2[5] <= 1
 frechet_ub_x1_6: p[6,5] - p1[6] <= 0
 frechet_ub_x2_5: p[6,5] - p2[5] <= 0
 frechet_lb_6,_6: - p[6,6] + p1[6] + p2[6] <= 1
 frechet_ub_x1_6: p[6,6] - p1[6] <= 0
 frechet_ub_x2_6: p[6,6] - p2[6] <= 0
 Distribution: p[0,0] + p[0,1] + p[0,2] + p[0,3] + p[0,4] + p[0,5] + p[0,6]
   + p[1,0] + p[1,1] + p[1,2] + p[1,3] + p[1,4] + p[1,5] + p[1,6] + p[2,0]
   + p[2,1] + p[2,2] + p[2,3] + p[2,4] + p[2,5] + p[2,6] + p[3,0] + p[3,1]
   + p[3,2] + p[3,3] + p[3,4] + p[3,5] + p[3,6] + p[4,0] + p[4,1] + p[4,2]
   + p[4,3] + p[4,4] + p[4,5] + p[4,6] + p[5,0] + p[5,1] + p[5,2] + p[5,3]
   + p[5,4] + p[5,5] + p[5,6] + p[6,0] + p[6,1] + p[6,2] + p[6,3] + p[6,4]
   + p[6,5] + p[6,6] <= 1
 Distribution_x1: p1[0] + p1[1] + p1[2] + p1[3] + p1[4] + p1[5] + p1[6]
   <= 1
 Distribution_x2: p2[0] + p2[1] + p2[2] + p2[3] + p2[4] + p2[5] + p2[6]
   <= 1
 Equation_0,_0: [ - p[0,0] * k_tx_1 - p[0,0] * k_tx_2 + p[0,1] * k_deg_2
   + p[1,0] * k_deg_1 + p[1,1] * k_reg ] = 0
 Equation_0,_1: [ p[0,0] * k_tx_2 - p[0,1] * k_tx_1 - p[0,1] * k_tx_2
   - p[0,1] * k_deg_2 + 2 p[0,2] * k_deg_2 + p[1,1] * k_deg_1
   + 2 p[1,2] * k_reg ] = 0
 Equation_0,_2: [ p[0,1] * k_tx_2 - p[0,2] * k_tx_1 - p[0,2] * k_tx_2
   - 2 p[0,2] * k_deg_2 + 3 p[0,3] * k_deg_2 + p[1,2] * k_deg_1
   + 3 p[1,3] * k_reg ] = 0
 Equation_0,_3: [ p[0,2] * k_tx_2 - p[0,3] * k_tx_1 - p[0,3] * k_tx_2
   - 3 p[0,3] * k_deg_2 + 4 p[0,4] * k_deg_2 + p[1,3] * k_deg_1
   + 4 p[1,4] * k_reg ] = 0
 Equation_0,_4: [ p[0,3] * k_tx_2 - p[0,4] * k_tx_1 - p[0,4] * k_tx_2
   - 4 p[0,4] * k_deg_2 + 5 p[0,5] * k_deg_2 + p[1,4] * k_deg_1
   + 5 p[1,5] * k_reg ] = 0
 Equation_0,_5: [ p[0,4] * k_tx_2 - p[0,5] * k_tx_1 - p[0,5] * k_tx_2
   - 5 p[0,5] * k_deg_2 + 6 p[0,6] * k_deg_2 + p[1,5] * k_deg_1
   + 6 p[1,6] * k_reg ] = 0
 Equation_1,_0: [ p[0,0] * k_tx_1 - p[1,0] * k_tx_1 - p[1,0] * k_tx_2
   - p[1,0] * k_deg_1 + p[1,1] * k_deg_2 + 2 p[2,0] * k_deg_1
   + 2 p[2,1] * k_reg ] = 0
 Equation_1,_1: [ p[0,1] * k_tx_1 + p[1,0] * k_tx_2 - p[1,1] * k_tx_1
   - p[1,1] * k_tx_2 - p[1,1] * k_deg_1 - p[1,1] * k_deg_2 - p[1,1] * k_reg
   + 2 p[1,2] * k_deg_2 + 2 p[2,1] * k_deg_1 + 4 p[2,2] * k_reg ] = 0
 Equation_1,_2: [ p[0,2] * k_tx_1 + p[1,1] * k_tx_2 - p[1,2] * k_tx_1
   - p[1,2] * k_tx_2 - p[1,2] * k_deg_1 - 2 p[1,2] * k_deg_2
   - 2 p[1,2] * k_reg + 3 p[1,3] * k_deg_2 + 2 p[2,2] * k_deg_1
   + 6 p[2,3] * k_reg ] = 0
 Equation_1,_3: [ p[0,3] * k_tx_1 + p[1,2] * k_tx_2 - p[1,3] * k_tx_1
   - p[1,3] * k_tx_2 - p[1,3] * k_deg_1 - 3 p[1,3] * k_deg_2
   - 3 p[1,3] * k_reg + 4 p[1,4] * k_deg_2 + 2 p[2,3] * k_deg_1
   + 8 p[2,4] * k_reg ] = 0
 Equation_1,_4: [ p[0,4] * k_tx_1 + p[1,3] * k_tx_2 - p[1,4] * k_tx_1
   - p[1,4] * k_tx_2 - p[1,4] * k_deg_1 - 4 p[1,4] * k_deg_2
   - 4 p[1,4] * k_reg + 5 p[1,5] * k_deg_2 + 2 p[2,4] * k_deg_1
   + 10 p[2,5] * k_reg ] = 0
 Equation_1,_5: [ p[0,5] * k_tx_1 + p[1,4] * k_tx_2 - p[1,5] * k_tx_1
   - p[1,5] * k_tx_2 - p[1,5] * k_deg_1 - 5 p[1,5] * k_deg_2
   - 5 p[1,5] * k_reg + 6 p[1,6] * k_deg_2 + 2 p[2,5] * k_deg_1
   + 12 p[2,6] * k_reg ] = 0
 Equation_2,_0: [ p[1,0] * k_tx_1 - p[2,0] * k_tx_1 - p[2,0] * k_tx_2
   - 2 p[2,0] * k_deg_1 + p[2,1] * k_deg_2 + 3 p[3,0] * k_deg_1
   + 3 p[3,1] * k_reg ] = 0
 Equation_2,_1: [ p[1,1] * k_tx_1 + p[2,0] * k_tx_2 - p[2,1] * k_tx_1
   - p[2,1] * k_tx_2 - 2 p[2,1] * k_deg_1 - p[2,1] * k_deg_2
   - 2 p[2,1] * k_reg + 2 p[2,2] * k_deg_2 + 3 p[3,1] * k_deg_1
   + 6 p[3,2] * k_reg ] = 0
 Equation_2,_2: [ p[1,2] * k_tx_1 + p[2,1] * k_tx_2 - p[2,2] * k_tx_1
   - p[2,2] * k_tx_2 - 2 p[2,2] * k_deg_1 - 2 p[2,2] * k_deg_2
   - 4 p[2,2] * k_reg + 3 p[2,3] * k_deg_2 + 3 p[3,2] * k_deg_1
   + 9 p[3,3] * k_reg ] = 0
 Equation_2,_3: [ p[1,3] * k_tx_1 + p[2,2] * k_tx_2 - p[2,3] * k_tx_1
   - p[2,3] * k_tx_2 - 2 p[2,3] * k_deg_1 - 3 p[2,3] * k_deg_2
   - 6 p[2,3] * k_reg + 4 p[2,4] * k_deg_2 + 3 p[3,3] * k_deg_1
   + 12 p[3,4] * k_reg ] = 0
 Equation_2,_4: [ p[1,4] * k_tx_1 + p[2,3] * k_tx_2 - p[2,4] * k_tx_1
   - p[2,4] * k_tx_2 - 2 p[2,4] * k_deg_1 - 4 p[2,4] * k_deg_2
   - 8 p[2,4] * k_reg + 5 p[2,5] * k_deg_2 + 3 p[3,4] * k_deg_1
   + 15 p[3,5] * k_reg ] = 0
 Equation_2,_5: [ p[1,5] * k_tx_1 + p[2,4] * k_tx_2 - p[2,5] * k_tx_1
   - p[2,5] * k_tx_2 - 2 p[2,5] * k_deg_1 - 5 p[2,5] * k_deg_2
   - 10 p[2,5] * k_reg + 6 p[2,6] * k_deg_2 + 3 p[3,5] * k_deg_1
   + 18 p[3,6] * k_reg ] = 0
 Equation_3,_0: [ p[2,0] * k_tx_1 - p[3,0] * k_tx_1 - p[3,0] * k_tx_2
   - 3 p[3,0] * k_deg_1 + p[3,1] * k_deg_2 + 4 p[4,0] * k_deg_1
   + 4 p[4,1] * k_reg ] = 0
 Equation_3,_1: [ p[2,1] * k_tx_1 + p[3,0] * k_tx_2 - p[3,1] * k_tx_1
   - p[3,1] * k_tx_2 - 3 p[3,1] * k_deg_1 - p[3,1] * k_deg_2
   - 3 p[3,1] * k_reg + 2 p[3,2] * k_deg_2 + 4 p[4,1] * k_deg_1
   + 8 p[4,2] * k_reg ] = 0
 Equation_3,_2: [ p[2,2] * k_tx_1 + p[3,1] * k_tx_2 - p[3,2] * k_tx_1
   - p[3,2] * k_tx_2 - 3 p[3,2] * k_deg_1 - 2 p[3,2] * k_deg_2
   - 6 p[3,2] * k_reg + 3 p[3,3] * k_deg_2 + 4 p[4,2] * k_deg_1
   + 12 p[4,3] * k_reg ] = 0
 Equation_3,_3: [ p[2,3] * k_tx_1 + p[3,2] * k_tx_2 - p[3,3] * k_tx_1
   - p[3,3] * k_tx_2 - 3 p[3,3] * k_deg_1 - 3 p[3,3] * k_deg_2
   - 9 p[3,3] * k_reg + 4 p[3,4] * k_deg_2 + 4 p[4,3] * k_deg_1
   + 16 p[4,4] * k_reg ] = 0
 Equation_3,_4: [ p[2,4] * k_tx_1 + p[3,3] * k_tx_2 - p[3,4] * k_tx_1
   - p[3,4] * k_tx_2 - 3 p[3,4] * k_deg_1 - 4 p[3,4] * k_deg_2
   - 12 p[3,4] * k_reg + 5 p[3,5] * k_deg_2 + 4 p[4,4] * k_deg_1
   + 20 p[4,5] * k_reg ] = 0
 Equation_3,_5: [ p[2,5] * k_tx_1 + p[3,4] * k_tx_2 - p[3,5] * k_tx_1
   - p[3,5] * k_tx_2 - 3 p[3,5] * k_deg_1 - 5 p[3,5] * k_deg_2
   - 15 p[3,5] * k_reg + 6 p[3,6] * k_deg_2 + 4 p[4,5] * k_deg_1
   + 24 p[4,6] * k_reg ] = 0
 Equation_4,_0: [ p[3,0] * k_tx_1 - p[4,0] * k_tx_1 - p[4,0] * k_tx_2
   - 4 p[4,0] * k_deg_1 + p[4,1] * k_deg_2 + 5 p[5,0] * k_deg_1
   + 5 p[5,1] * k_reg ] = 0
 Equation_4,_1: [ p[3,1] * k_tx_1 + p[4,0] * k_tx_2 - p[4,1] * k_tx_1
   - p[4,1] * k_tx_2 - 4 p[4,1] * k_deg_1 - p[4,1] * k_deg_2
   - 4 p[4,1] * k_reg + 2 p[4,2] * k_deg_2 + 5 p[5,1] * k_deg_1
   + 10 p[5,2] * k_reg ] = 0
 Equation_4,_2: [ p[3,2] * k_tx_1 + p[4,1] * k_tx_2 - p[4,2] * k_tx_1
   - p[4,2] * k_tx_2 - 4 p[4,2] * k_deg_1 - 2 p[4,2] * k_deg_2
   - 8 p[4,2] * k_reg + 3 p[4,3] * k_deg_2 + 5 p[5,2] * k_deg_1
   + 15 p[5,3] * k_reg ] = 0
 Equation_4,_3: [ p[3,3] * k_tx_1 + p[4,2] * k_tx_2 - p[4,3] * k_tx_1
   - p[4,3] * k_tx_2 - 4 p[4,3] * k_deg_1 - 3 p[4,3] * k_deg_2
   - 12 p[4,3] * k_reg + 4 p[4,4] * k_deg_2 + 5 p[5,3] * k_deg_1
   + 20 p[5,4] * k_reg ] = 0
 Equation_4,_4: [ p[3,4] * k_tx_1 + p[4,3] * k_tx_2 - p[4,4] * k_tx_1
   - p[4,4] * k_tx_2 - 4 p[4,4] * k_deg_1 - 4 p[4,4] * k_deg_2
   - 16 p[4,4] * k_reg + 5 p[4,5] * k_deg_2 + 5 p[5,4] * k_deg_1
   + 25 p[5,5] * k_reg ] = 0
 Equation_4,_5: [ p[3,5] * k_tx_1 + p[4,4] * k_tx_2 - p[4,5] * k_tx_1
   - p[4,5] * k_tx_2 - 4 p[4,5] * k_deg_1 - 5 p[4,5] * k_deg_2
   - 20 p[4,5] * k_reg + 6 p[4,6] * k_deg_2 + 5 p[5,5] * k_deg_1
   + 30 p[5,6] * k_reg ] = 0
 Equation_5,_0: [ p[4,0] * k_tx_1 - p[5,0] * k_tx_1 - p[5,0] * k_tx_2
   - 5 p[5,0] * k_deg_1 + p[5,1] * k_deg_2 + 6 p[6,0] * k_deg_1
   + 6 p[6,1] * k_reg ] = 0
 Equation_5,_1: [ p[4,1] * k_tx_1 + p[5,0] * k_tx_2 - p[5,1] * k_tx_1
   - p[5,1] * k_tx_2 - 5 p[5,1] * k_deg_1 - p[5,1] * k_deg_2
   - 5 p[5,1] * k_reg + 2 p[5,2] * k_deg_2 + 6 p[6,1] * k_deg_1
   + 12 p[6,2] * k_reg ] = 0
 Equation_5,_2: [ p[4,2] * k_tx_1 + p[5,1] * k_tx_2 - p[5,2] * k_tx_1
   - p[5,2] * k_tx_2 - 5 p[5,2] * k_deg_1 - 2 p[5,2] * k_deg_2
   - 10 p[5,2] * k_reg + 3 p[5,3] * k_deg_2 + 6 p[6,2] * k_deg_1
   + 18 p[6,3] * k_reg ] = 0
 Equation_5,_3: [ p[4,3] * k_tx_1 + p[5,2] * k_tx_2 - p[5,3] * k_tx_1
   - p[5,3] * k_tx_2 - 5 p[5,3] * k_deg_1 - 3 p[5,3] * k_deg_2
   - 15 p[5,3] * k_reg + 4 p[5,4] * k_deg_2 + 6 p[6,3] * k_deg_1
   + 24 p[6,4] * k_reg ] = 0
 Equation_5,_4: [ p[4,4] * k_tx_1 + p[5,3] * k_tx_2 - p[5,4] * k_tx_1
   - p[5,4] * k_tx_2 - 5 p[5,4] * k_deg_1 - 4 p[5,4] * k_deg_2
   - 20 p[5,4] * k_reg + 5 p[5,5] * k_deg_2 + 6 p[6,4] * k_deg_1
   + 30 p[6,5] * k_reg ] = 0
 Equation_5,_5: [ p[4,5] * k_tx_1 + p[5,4] * k_tx_2 - p[5,5] * k_tx_1
   - p[5,5] * k_tx_2 - 5 p[5,5] * k_deg_1 - 5 p[5,5] * k_deg_2
   - 25 p[5,5] * k_reg + 6 p[5,6] * k_deg_2 + 6 p[6,5] * k_deg_1
   + 36 p[6,6] * k_reg ] = 0
Bounds
 p[0,0] <= 1
 p[0,1] <= 1
 p[0,2] <= 1
 p[0,3] <= 1
 p[0,4] <= 1
 p[0,5] <= 1
 p[0,6] <= 1
 p[1,0] <= 1
 p[1,1] <= 1
 p[1,2] <= 1
 p[1,3] <= 1
 p[1,4] <= 1
 p[1,5] <= 1
 p[1,6] <= 1
 p[2,0] <= 1
 p[2,1] <= 1
 p[2,2] <= 1
 p[2,3] <= 1
 p[2,4] <= 1
 p[2,5] <= 1
 p[2,6] <= 1
 p[3,0] <= 1
 p[3,1] <= 1
 p[3,2] <= 1
 p[3,3] <= 1
 p[3,4] <= 1
 p[3,5] <= 1
 p[3,6] <= 1
 p[4,0] <= 1
 p[4,1] <= 1
 p[4,2] <= 1
 p[4,3] <= 1
 p[4,4] <= 1
 p[4,5] <= 1
 p[4,6] <= 1
 p[5,0] <= 1
 p[5,1] <= 1
 p[5,2] <= 1
 p[5,3] <= 1
 p[5,4] <= 1
 p[5,5] <= 1
 p[5,6] <= 1
 p[6,0] <= 1
 p[6,1] <= 1
 p[6,2] <= 1
 p[6,3] <= 1
 p[6,4] <= 1
 p[6,5] <= 1
 p[6,6] <= 1
 p1[0] <= 1
 p1[1] <= 1
 p1[2] <= 1
 p1[3] <= 1
 p1[4] <= 1
 p1[5] <= 1
 p1[6] <= 1
 p2[0] <= 1
 p2[1] <= 1
 p2[2] <= 1
 p2[3] <= 1
 p2[4] <= 1
 p2[5] <= 1
 p2[6] <= 1
 k_tx_1 <= 10
 k_tx_2 <= 10
 k_deg_1 <= 10
 k_deg_2 <= 10
 k_reg <= 10
End
